2167557821730339098502,9,1,2,010,10,1,2,07,4,1,2,09,12,1,2,015,14,1,2,03,15,1,2,05,7,1,2,02,10,1,2,06,12,1,2,011,7,1,2,014,14,1,2,07,8,1,2,05,8,1,2,012,15,1,2,08,12,1,2,09,1,1,2,013,14,1,2,07,6,1,2,014,8,1,2,013,8,1,2,014,14,1,2,08,5,1,2,012,8,1,2,02,15,1,2,014,4,1,2,013,7,1,2,03,10,1,2,09,9,1,2,02,1,1,2,07,14,1,2,04,1,1,2,010,13,1,2,09,11,1,2,010,10,1,2,01,1,1,2,02,10,1,2,05,3,1,2,014,9,1,2,01,8,1,2,015,12,1,2,02,5,1,2,012,6,1,2,03,12,1,2,015,6,1,2,07,15,1,2,04,2,1,2,04,12,1,2,04,11,1,2,01,1,1,2,012,3,1,2,0